0 53 4 54 80 68 77 3 33 51 9 71 35 34 29 24 55 25 39 67 23 56 75 41 22 74 72 73 21 0
0 26 40 58 13 87 2 57 42 15 43 14 38 44 16 61 85 91 100 37 98 95 96 94 6 89 0
0 28 50 1 20 30 10 63 11 49 36 47 46 45 17 84 83 18 52 7 48 19 62 88 31 69 27 0
